# Objective value = 4
y 4
x1 1
r1 1
y1 0
p12 1
q12 0
p13 1
q13 0
p14 0
q14 0
p15 1
q15 0
x2 1
r2 1
y2 0
p23 1
q23 0
p24 0
q24 1
p25 1
q25 0
x3 0
r3 1
y3 0
p34 0
q34 0
p35 1
q35 0
x4 8
r4 1
y4 1
p45 1
q45 1
x5 2
r5 1
y5 0
